NAME: ETSP
COMMENT: Generated by write_TSPLIB (R package TSP)
TYPE: TSP
DIMENSION: 300
EDGE_WEIGHT_TYPE: EUC_2D
NODE_COORD_SECTION
1 4.633000e+00 1.929500e+01
2 4.633000e+00 3.788600e+01
3 4.633000e+00 5.647700e+01
4 4.633000e+00 7.506700e+01
5 4.633000e+00 9.365800e+01
6 4.633000e+00 1.122490e+02
7 4.633000e+00 1.308390e+02
8 4.633000e+00 1.494300e+02
9 4.633000e+00 1.680210e+02
10 4.633000e+00 1.866110e+02
11 1.000000e+01 1.000000e+01
12 1.000000e+01 2.859100e+01
13 1.000000e+01 4.718100e+01
14 1.000000e+01 6.577200e+01
15 1.000000e+01 8.436300e+01
16 1.000000e+01 1.029530e+02
17 1.000000e+01 1.215440e+02
18 1.000000e+01 1.401350e+02
19 1.000000e+01 1.587250e+02
20 1.000000e+01 1.773160e+02
21 1.536700e+01 1.929500e+01
22 1.536700e+01 3.788600e+01
23 1.536700e+01 5.647700e+01
24 1.536700e+01 7.506700e+01
25 1.536700e+01 9.365800e+01
26 1.536700e+01 1.122490e+02
27 1.536700e+01 1.308390e+02
28 1.536700e+01 1.494300e+02
29 1.536700e+01 1.680210e+02
30 1.536700e+01 1.866110e+02
31 2.073300e+01 1.000000e+01
32 2.073300e+01 2.859100e+01
33 2.073300e+01 4.718100e+01
34 2.073300e+01 6.577200e+01
35 2.073300e+01 8.436300e+01
36 2.073300e+01 1.029530e+02
37 2.073300e+01 1.215440e+02
38 2.073300e+01 1.401350e+02
39 2.073300e+01 1.587250e+02
40 2.073300e+01 1.773160e+02
41 2.610000e+01 1.929500e+01
42 2.610000e+01 3.788600e+01
43 2.610000e+01 5.647700e+01
44 2.610000e+01 7.506700e+01
45 2.610000e+01 9.365800e+01
46 2.610000e+01 1.122490e+02
47 2.610000e+01 1.308390e+02
48 2.610000e+01 1.494300e+02
49 2.610000e+01 1.680210e+02
50 2.610000e+01 1.866110e+02
51 3.146700e+01 1.000000e+01
52 3.146700e+01 2.859100e+01
53 3.146700e+01 4.718100e+01
54 3.146700e+01 6.577200e+01
55 3.146700e+01 8.436300e+01
56 3.146700e+01 1.029530e+02
57 3.146700e+01 1.215440e+02
58 3.146700e+01 1.401350e+02
59 3.146700e+01 1.587250e+02
60 3.146700e+01 1.773160e+02
61 3.683300e+01 1.929500e+01
62 3.683300e+01 3.788600e+01
63 3.683300e+01 5.647700e+01
64 3.683300e+01 7.506700e+01
65 3.683300e+01 9.365800e+01
66 3.683300e+01 1.122490e+02
67 3.683300e+01 1.308390e+02
68 3.683300e+01 1.494300e+02
69 3.683300e+01 1.680210e+02
70 3.683300e+01 1.866110e+02
71 4.220000e+01 1.000000e+01
72 4.220000e+01 2.859100e+01
73 4.220000e+01 4.718100e+01
74 4.220000e+01 6.577200e+01
75 4.220000e+01 8.436300e+01
76 4.220000e+01 1.029530e+02
77 4.220000e+01 1.215440e+02
78 4.220000e+01 1.401350e+02
79 4.220000e+01 1.587250e+02
80 4.220000e+01 1.773160e+02
81 4.756700e+01 1.929500e+01
82 4.756700e+01 3.788600e+01
83 4.756700e+01 5.647700e+01
84 4.756700e+01 7.506700e+01
85 4.756700e+01 9.365800e+01
86 4.756700e+01 1.122490e+02
87 4.756700e+01 1.308390e+02
88 4.756700e+01 1.494300e+02
89 4.756700e+01 1.680210e+02
90 4.756700e+01 1.866110e+02
91 5.293300e+01 1.000000e+01
92 5.293300e+01 2.859100e+01
93 5.293300e+01 4.718100e+01
94 5.293300e+01 6.577200e+01
95 5.293300e+01 8.436300e+01
96 5.293300e+01 1.029530e+02
97 5.293300e+01 1.215440e+02
98 5.293300e+01 1.401350e+02
99 5.293300e+01 1.587250e+02
100 5.293300e+01 1.773160e+02
101 5.830000e+01 1.929500e+01
102 5.830000e+01 3.788600e+01
103 5.830000e+01 5.647700e+01
104 5.830000e+01 7.506700e+01
105 5.830000e+01 9.365800e+01
106 5.830000e+01 1.122490e+02
107 5.830000e+01 1.308390e+02
108 5.830000e+01 1.494300e+02
109 5.830000e+01 1.680210e+02
110 5.830000e+01 1.866110e+02
111 6.366700e+01 1.000000e+01
112 6.366700e+01 2.859100e+01
113 6.366700e+01 4.718100e+01
114 6.366700e+01 6.577200e+01
115 6.366700e+01 8.436300e+01
116 6.366700e+01 1.029530e+02
117 6.366700e+01 1.215440e+02
118 6.366700e+01 1.401350e+02
119 6.366700e+01 1.587250e+02
120 6.366700e+01 1.773160e+02
121 6.903300e+01 1.929500e+01
122 6.903300e+01 3.788600e+01
123 6.903300e+01 5.647700e+01
124 6.903300e+01 7.506700e+01
125 6.903300e+01 9.365800e+01
126 6.903300e+01 1.122490e+02
127 6.903300e+01 1.308390e+02
128 6.903300e+01 1.494300e+02
129 6.903300e+01 1.680210e+02
130 6.903300e+01 1.866110e+02
131 7.440000e+01 1.000000e+01
132 7.440000e+01 2.859100e+01
133 7.440000e+01 4.718100e+01
134 7.440000e+01 6.577200e+01
135 7.440000e+01 8.436300e+01
136 7.440000e+01 1.029530e+02
137 7.440000e+01 1.215440e+02
138 7.440000e+01 1.401350e+02
139 7.440000e+01 1.587250e+02
140 7.440000e+01 1.773160e+02
141 7.976700e+01 1.929500e+01
142 7.976700e+01 3.788600e+01
143 7.976700e+01 5.647700e+01
144 7.976700e+01 7.506700e+01
145 7.976700e+01 9.365800e+01
146 7.976700e+01 1.122490e+02
147 7.976700e+01 1.308390e+02
148 7.976700e+01 1.494300e+02
149 7.976700e+01 1.680210e+02
150 7.976700e+01 1.866110e+02
151 8.513300e+01 1.000000e+01
152 8.513300e+01 2.859100e+01
153 8.513300e+01 4.718100e+01
154 8.513300e+01 6.577200e+01
155 8.513300e+01 8.436300e+01
156 8.513300e+01 1.029530e+02
157 8.513300e+01 1.215440e+02
158 8.513300e+01 1.401350e+02
159 8.513300e+01 1.587250e+02
160 8.513300e+01 1.773160e+02
161 9.050000e+01 1.929500e+01
162 9.050000e+01 3.788600e+01
163 9.050000e+01 5.647700e+01
164 9.050000e+01 7.506700e+01
165 9.050000e+01 9.365800e+01
166 9.050000e+01 1.122490e+02
167 9.050000e+01 1.308390e+02
168 9.050000e+01 1.494300e+02
169 9.050000e+01 1.680210e+02
170 9.050000e+01 1.866110e+02
171 9.586700e+01 1.000000e+01
172 9.586700e+01 2.859100e+01
173 9.586700e+01 4.718100e+01
174 9.586700e+01 6.577200e+01
175 9.586700e+01 8.436300e+01
176 9.586700e+01 1.029530e+02
177 9.586700e+01 1.215440e+02
178 9.586700e+01 1.401350e+02
179 9.586700e+01 1.587250e+02
180 9.586700e+01 1.773160e+02
181 1.012330e+02 1.929500e+01
182 1.012330e+02 3.788600e+01
183 1.012330e+02 5.647700e+01
184 1.012330e+02 7.506700e+01
185 1.012330e+02 9.365800e+01
186 1.012330e+02 1.122490e+02
187 1.012330e+02 1.308390e+02
188 1.012330e+02 1.494300e+02
189 1.012330e+02 1.680210e+02
190 1.012330e+02 1.866110e+02
191 1.066000e+02 1.000000e+01
192 1.066000e+02 2.859100e+01
193 1.066000e+02 4.718100e+01
194 1.066000e+02 6.577200e+01
195 1.066000e+02 8.436300e+01
196 1.066000e+02 1.029530e+02
197 1.066000e+02 1.215440e+02
198 1.066000e+02 1.401350e+02
199 1.066000e+02 1.587250e+02
200 1.066000e+02 1.773160e+02
201 1.119670e+02 1.929500e+01
202 1.119670e+02 3.788600e+01
203 1.119670e+02 5.647700e+01
204 1.119670e+02 7.506700e+01
205 1.119670e+02 9.365800e+01
206 1.119670e+02 1.122490e+02
207 1.119670e+02 1.308390e+02
208 1.119670e+02 1.494300e+02
209 1.119670e+02 1.680210e+02
210 1.119670e+02 1.866110e+02
211 1.173330e+02 1.000000e+01
212 1.173330e+02 2.859100e+01
213 1.173330e+02 4.718100e+01
214 1.173330e+02 6.577200e+01
215 1.173330e+02 8.436300e+01
216 1.173330e+02 1.029530e+02
217 1.173330e+02 1.215440e+02
218 1.173330e+02 1.401350e+02
219 1.173330e+02 1.587250e+02
220 1.173330e+02 1.773160e+02
221 1.227000e+02 1.929500e+01
222 1.227000e+02 3.788600e+01
223 1.227000e+02 5.647700e+01
224 1.227000e+02 7.506700e+01
225 1.227000e+02 9.365800e+01
226 1.227000e+02 1.122490e+02
227 1.227000e+02 1.308390e+02
228 1.227000e+02 1.494300e+02
229 1.227000e+02 1.680210e+02
230 1.227000e+02 1.866110e+02
231 1.280670e+02 1.000000e+01
232 1.280670e+02 2.859100e+01
233 1.280670e+02 4.718100e+01
234 1.280670e+02 6.577200e+01
235 1.280670e+02 8.436300e+01
236 1.280670e+02 1.029530e+02
237 1.280670e+02 1.215440e+02
238 1.280670e+02 1.401350e+02
239 1.280670e+02 1.587250e+02
240 1.280670e+02 1.773160e+02
241 1.334330e+02 1.929500e+01
242 1.334330e+02 3.788600e+01
243 1.334330e+02 5.647700e+01
244 1.334330e+02 7.506700e+01
245 1.334330e+02 9.365800e+01
246 1.334330e+02 1.122490e+02
247 1.334330e+02 1.308390e+02
248 1.334330e+02 1.494300e+02
249 1.334330e+02 1.680210e+02
250 1.334330e+02 1.866110e+02
251 1.388000e+02 1.000000e+01
252 1.388000e+02 2.859100e+01
253 1.388000e+02 4.718100e+01
254 1.388000e+02 6.577200e+01
255 1.388000e+02 8.436300e+01
256 1.388000e+02 1.029530e+02
257 1.388000e+02 1.215440e+02
258 1.388000e+02 1.401350e+02
259 1.388000e+02 1.587250e+02
260 1.388000e+02 1.773160e+02
261 1.441670e+02 1.929500e+01
262 1.441670e+02 3.788600e+01
263 1.441670e+02 5.647700e+01
264 1.441670e+02 7.506700e+01
265 1.441670e+02 9.365800e+01
266 1.441670e+02 1.122490e+02
267 1.441670e+02 1.308390e+02
268 1.441670e+02 1.494300e+02
269 1.441670e+02 1.680210e+02
270 1.441670e+02 1.866110e+02
271 1.495330e+02 1.000000e+01
272 1.495330e+02 2.859100e+01
273 1.495330e+02 4.718100e+01
274 1.495330e+02 6.577200e+01
275 1.495330e+02 8.436300e+01
276 1.495330e+02 1.029530e+02
277 1.495330e+02 1.215440e+02
278 1.495330e+02 1.401350e+02
279 1.495330e+02 1.587250e+02
280 1.495330e+02 1.773160e+02
281 1.549000e+02 1.929500e+01
282 1.549000e+02 3.788600e+01
283 1.549000e+02 5.647700e+01
284 1.549000e+02 7.506700e+01
285 1.549000e+02 9.365800e+01
286 1.549000e+02 1.122490e+02
287 1.549000e+02 1.308390e+02
288 1.549000e+02 1.494300e+02
289 1.549000e+02 1.680210e+02
290 1.549000e+02 1.866110e+02
291 1.602670e+02 1.000000e+01
292 1.602670e+02 2.859100e+01
293 1.602670e+02 4.718100e+01
294 1.602670e+02 6.577200e+01
295 1.602670e+02 8.436300e+01
296 1.602670e+02 1.029530e+02
297 1.602670e+02 1.215440e+02
298 1.602670e+02 1.401350e+02
299 1.602670e+02 1.587250e+02
300 1.602670e+02 1.773160e+02
EOF
